(set-logic ALL)
(declare-const BAV1 Bool)
(declare-const BAV2 Bool)
(declare-const BAV3 Bool)
(declare-const BAV4 Bool)
(declare-const BAV5 Bool)
(declare-const BAV6 Bool)
(declare-const GEN8 Real)
(declare-const GEN7 Real)
(declare-const GEN6 Real)
(declare-const GEN5 Real)
(declare-const GEN4 Real)
(declare-const GEN3 Real)
(declare-const GEN2 Int)
(declare-const GEN1 Int)
(declare-fun x () Real)
(assert (= (* x x) GEN1))
(assert (> x GEN2))
(assert (or (> (+ (* x x) (* (- GEN3) x)) (- GEN4)) (> (+ (* x x) (* (- GEN5) x)) (- GEN6)) (> (+ (* x x) (* (- GEN7) x)) (- GEN8))))
(assert (= BAV1 (= (* x x) GEN1)))
(assert (= BAV2 (> x GEN2)))
(assert (= BAV3 (or (> (+ (* x x) (* (- GEN3) x)) (- GEN4)) (> (+ (* x x) (* (- GEN5) x)) (- GEN6)) (> (+ (* x x) (* (- GEN7) x)) (- GEN8)))))
(assert (= BAV4 (> (+ (* x x) (* (- GEN3) x)) (- GEN4))))
(assert (= BAV5 (> (+ (* x x) (* (- GEN5) x)) (- GEN6))))
(assert (= BAV6 (> (+ (* x x) (* (- GEN7) x)) (- GEN8))))
(check-sat)
(get-model)